c Generated with `cnfgen`
c (C) 2012-2019 Massimo Lauria <massimo.lauria@uniroma1.it>
c https://massimolauria.net/cnfgen
c
c COMMAND LINE: cnfgen --seed 1 -o ./tseitin/tseitin.gnm130-150.s1.cnf tseitin --gnm 130 150 --savegraph ./tseitin/tseitin.gnm130-150.s1.graph --graphformat dot --charge randomeven
c
p cnf 150 788
1 2 3 4 5 -6 0
1 2 3 4 -5 6 0
1 2 3 -4 5 6 0
1 2 3 -4 -5 -6 0
1 2 -3 4 5 6 0
1 2 -3 4 -5 -6 0
1 2 -3 -4 5 -6 0
1 2 -3 -4 -5 6 0
1 -2 3 4 5 6 0
1 -2 3 4 -5 -6 0
1 -2 3 -4 5 -6 0
1 -2 3 -4 -5 6 0
1 -2 -3 4 5 -6 0
1 -2 -3 4 -5 6 0
1 -2 -3 -4 5 6 0
1 -2 -3 -4 -5 -6 0
-1 2 3 4 5 6 0
-1 2 3 4 -5 -6 0
-1 2 3 -4 5 -6 0
-1 2 3 -4 -5 6 0
-1 2 -3 4 5 -6 0
-1 2 -3 4 -5 6 0
-1 2 -3 -4 5 6 0
-1 2 -3 -4 -5 -6 0
-1 -2 3 4 5 -6 0
-1 -2 3 4 -5 6 0
-1 -2 3 -4 5 6 0
-1 -2 3 -4 -5 -6 0
-1 -2 -3 4 5 6 0
-1 -2 -3 4 -5 -6 0
-1 -2 -3 -4 5 -6 0
-1 -2 -3 -4 -5 6 0
7 8 0
-7 -8 0
9 10 11 0
9 -10 -11 0
-9 10 -11 0
-9 -10 11 0
12 0
13 14 15 16 17 18 19 0
13 14 15 16 17 -18 -19 0
13 14 15 16 -17 18 -19 0
13 14 15 16 -17 -18 19 0
13 14 15 -16 17 18 -19 0
13 14 15 -16 17 -18 19 0
13 14 15 -16 -17 18 19 0
13 14 15 -16 -17 -18 -19 0
13 14 -15 16 17 18 -19 0
13 14 -15 16 17 -18 19 0
13 14 -15 16 -17 18 19 0
13 14 -15 16 -17 -18 -19 0
13 14 -15 -16 17 18 19 0
13 14 -15 -16 17 -18 -19 0
13 14 -15 -16 -17 18 -19 0
13 14 -15 -16 -17 -18 19 0
13 -14 15 16 17 18 -19 0
13 -14 15 16 17 -18 19 0
13 -14 15 16 -17 18 19 0
13 -14 15 16 -17 -18 -19 0
13 -14 15 -16 17 18 19 0
13 -14 15 -16 17 -18 -19 0
13 -14 15 -16 -17 18 -19 0
13 -14 15 -16 -17 -18 19 0
13 -14 -15 16 17 18 19 0
13 -14 -15 16 17 -18 -19 0
13 -14 -15 16 -17 18 -19 0
13 -14 -15 16 -17 -18 19 0
13 -14 -15 -16 17 18 -19 0
13 -14 -15 -16 17 -18 19 0
13 -14 -15 -16 -17 18 19 0
13 -14 -15 -16 -17 -18 -19 0
-13 14 15 16 17 18 -19 0
-13 14 15 16 17 -18 19 0
-13 14 15 16 -17 18 19 0
-13 14 15 16 -17 -18 -19 0
-13 14 15 -16 17 18 19 0
-13 14 15 -16 17 -18 -19 0
-13 14 15 -16 -17 18 -19 0
-13 14 15 -16 -17 -18 19 0
-13 14 -15 16 17 18 19 0
-13 14 -15 16 17 -18 -19 0
-13 14 -15 16 -17 18 -19 0
-13 14 -15 16 -17 -18 19 0
-13 14 -15 -16 17 18 -19 0
-13 14 -15 -16 17 -18 19 0
-13 14 -15 -16 -17 18 19 0
-13 14 -15 -16 -17 -18 -19 0
-13 -14 15 16 17 18 19 0
-13 -14 15 16 17 -18 -19 0
-13 -14 15 16 -17 18 -19 0
-13 -14 15 16 -17 -18 19 0
-13 -14 15 -16 17 18 -19 0
-13 -14 15 -16 17 -18 19 0
-13 -14 15 -16 -17 18 19 0
-13 -14 15 -16 -17 -18 -19 0
-13 -14 -15 16 17 18 -19 0
-13 -14 -15 16 17 -18 19 0
-13 -14 -15 16 -17 18 19 0
-13 -14 -15 16 -17 -18 -19 0
-13 -14 -15 -16 17 18 19 0
-13 -14 -15 -16 17 -18 -19 0
-13 -14 -15 -16 -17 18 -19 0
-13 -14 -15 -16 -17 -18 19 0
20 0
1 21 -22 0
1 -21 22 0
-1 21 22 0
-1 -21 -22 0
-23 0
24 25 26 0
24 -25 -26 0
-24 25 -26 0
-24 -25 26 0
27 28 29 30 31 32 0
27 28 29 30 -31 -32 0
27 28 29 -30 31 -32 0
27 28 29 -30 -31 32 0
27 28 -29 30 31 -32 0
27 28 -29 30 -31 32 0
27 28 -29 -30 31 32 0
27 28 -29 -30 -31 -32 0
27 -28 29 30 31 -32 0
27 -28 29 30 -31 32 0
27 -28 29 -30 31 32 0
27 -28 29 -30 -31 -32 0
27 -28 -29 30 31 32 0
27 -28 -29 30 -31 -32 0
27 -28 -29 -30 31 -32 0
27 -28 -29 -30 -31 32 0
-27 28 29 30 31 -32 0
-27 28 29 30 -31 32 0
-27 28 29 -30 31 32 0
-27 28 29 -30 -31 -32 0
-27 28 -29 30 31 32 0
-27 28 -29 30 -31 -32 0
-27 28 -29 -30 31 -32 0
-27 28 -29 -30 -31 32 0
-27 -28 29 30 31 32 0
-27 -28 29 30 -31 -32 0
-27 -28 29 -30 31 -32 0
-27 -28 29 -30 -31 32 0
-27 -28 -29 30 31 -32 0
-27 -28 -29 30 -31 32 0
-27 -28 -29 -30 31 32 0
-27 -28 -29 -30 -31 -32 0
33 -34 0
-33 34 0
35 -36 0
-35 36 0
37 38 -39 0
37 -38 39 0
-37 38 39 0
-37 -38 -39 0
40 41 42 0
40 -41 -42 0
-40 41 -42 0
-40 -41 42 0
43 0
35 -44 0
-35 44 0
45 46 -47 0
45 -46 47 0
-45 46 47 0
-45 -46 -47 0
27 48 49 0
27 -48 -49 0
-27 48 -49 0
-27 -48 49 0
28 37 50 51 52 53 -54 0
28 37 50 51 52 -53 54 0
28 37 50 51 -52 53 54 0
28 37 50 51 -52 -53 -54 0
28 37 50 -51 52 53 54 0
28 37 50 -51 52 -53 -54 0
28 37 50 -51 -52 53 -54 0
28 37 50 -51 -52 -53 54 0
28 37 -50 51 52 53 54 0
28 37 -50 51 52 -53 -54 0
28 37 -50 51 -52 53 -54 0
28 37 -50 51 -52 -53 54 0
28 37 -50 -51 52 53 -54 0
28 37 -50 -51 52 -53 54 0
28 37 -50 -51 -52 53 54 0
28 37 -50 -51 -52 -53 -54 0
28 -37 50 51 52 53 54 0
28 -37 50 51 52 -53 -54 0
28 -37 50 51 -52 53 -54 0
28 -37 50 51 -52 -53 54 0
28 -37 50 -51 52 53 -54 0
28 -37 50 -51 52 -53 54 0
28 -37 50 -51 -52 53 54 0
28 -37 50 -51 -52 -53 -54 0
28 -37 -50 51 52 53 -54 0
28 -37 -50 51 52 -53 54 0
28 -37 -50 51 -52 53 54 0
28 -37 -50 51 -52 -53 -54 0
28 -37 -50 -51 52 53 54 0
28 -37 -50 -51 52 -53 -54 0
28 -37 -50 -51 -52 53 -54 0
28 -37 -50 -51 -52 -53 54 0
-28 37 50 51 52 53 54 0
-28 37 50 51 52 -53 -54 0
-28 37 50 51 -52 53 -54 0
-28 37 50 51 -52 -53 54 0
-28 37 50 -51 52 53 -54 0
-28 37 50 -51 52 -53 54 0
-28 37 50 -51 -52 53 54 0
-28 37 50 -51 -52 -53 -54 0
-28 37 -50 51 52 53 -54 0
-28 37 -50 51 52 -53 54 0
-28 37 -50 51 -52 53 54 0
-28 37 -50 51 -52 -53 -54 0
-28 37 -50 -51 52 53 54 0
-28 37 -50 -51 52 -53 -54 0
-28 37 -50 -51 -52 53 -54 0
-28 37 -50 -51 -52 -53 54 0
-28 -37 50 51 52 53 -54 0
-28 -37 50 51 52 -53 54 0
-28 -37 50 51 -52 53 54 0
-28 -37 50 51 -52 -53 -54 0
-28 -37 50 -51 52 53 54 0
-28 -37 50 -51 52 -53 -54 0
-28 -37 50 -51 -52 53 -54 0
-28 -37 50 -51 -52 -53 54 0
-28 -37 -50 51 52 53 54 0
-28 -37 -50 51 52 -53 -54 0
-28 -37 -50 51 -52 53 -54 0
-28 -37 -50 51 -52 -53 54 0
-28 -37 -50 -51 52 53 -54 0
-28 -37 -50 -51 52 -53 54 0
-28 -37 -50 -51 -52 53 54 0
-28 -37 -50 -51 -52 -53 -54 0
-55 0
21 56 -57 0
21 -56 57 0
-21 56 57 0
-21 -56 -57 0
58 0
2 -59 0
-2 59 0
60 0
-61 0
58 -62 0
-58 62 0
29 63 64 0
29 -63 -64 0
-29 63 -64 0
-29 -63 64 0
-65 0
50 66 0
-50 -66 0
-3 0
-67 0
68 69 70 0
68 -69 -70 0
-68 69 -70 0
-68 -69 70 0
60 0
4 51 55 71 72 73 74 75 0
4 51 55 71 72 73 -74 -75 0
4 51 55 71 72 -73 74 -75 0
4 51 55 71 72 -73 -74 75 0
4 51 55 71 -72 73 74 -75 0
4 51 55 71 -72 73 -74 75 0
4 51 55 71 -72 -73 74 75 0
4 51 55 71 -72 -73 -74 -75 0
4 51 55 -71 72 73 74 -75 0
4 51 55 -71 72 73 -74 75 0
4 51 55 -71 72 -73 74 75 0
4 51 55 -71 72 -73 -74 -75 0
4 51 55 -71 -72 73 74 75 0
4 51 55 -71 -72 73 -74 -75 0
4 51 55 -71 -72 -73 74 -75 0
4 51 55 -71 -72 -73 -74 75 0
4 51 -55 71 72 73 74 -75 0
4 51 -55 71 72 73 -74 75 0
4 51 -55 71 72 -73 74 75 0
4 51 -55 71 72 -73 -74 -75 0
4 51 -55 71 -72 73 74 75 0
4 51 -55 71 -72 73 -74 -75 0
4 51 -55 71 -72 -73 74 -75 0
4 51 -55 71 -72 -73 -74 75 0
4 51 -55 -71 72 73 74 75 0
4 51 -55 -71 72 73 -74 -75 0
4 51 -55 -71 72 -73 74 -75 0
4 51 -55 -71 72 -73 -74 75 0
4 51 -55 -71 -72 73 74 -75 0
4 51 -55 -71 -72 73 -74 75 0
4 51 -55 -71 -72 -73 74 75 0
4 51 -55 -71 -72 -73 -74 -75 0
4 -51 55 71 72 73 74 -75 0
4 -51 55 71 72 73 -74 75 0
4 -51 55 71 72 -73 74 75 0
4 -51 55 71 72 -73 -74 -75 0
4 -51 55 71 -72 73 74 75 0
4 -51 55 71 -72 73 -74 -75 0
4 -51 55 71 -72 -73 74 -75 0
4 -51 55 71 -72 -73 -74 75 0
4 -51 55 -71 72 73 74 75 0
4 -51 55 -71 72 73 -74 -75 0
4 -51 55 -71 72 -73 74 -75 0
4 -51 55 -71 72 -73 -74 75 0
4 -51 55 -71 -72 73 74 -75 0
4 -51 55 -71 -72 73 -74 75 0
4 -51 55 -71 -72 -73 74 75 0
4 -51 55 -71 -72 -73 -74 -75 0
4 -51 -55 71 72 73 74 75 0
4 -51 -55 71 72 73 -74 -75 0
4 -51 -55 71 72 -73 74 -75 0
4 -51 -55 71 72 -73 -74 75 0
4 -51 -55 71 -72 73 74 -75 0
4 -51 -55 71 -72 73 -74 75 0
4 -51 -55 71 -72 -73 74 75 0
4 -51 -55 71 -72 -73 -74 -75 0
4 -51 -55 -71 72 73 74 -75 0
4 -51 -55 -71 72 73 -74 75 0
4 -51 -55 -71 72 -73 74 75 0
4 -51 -55 -71 72 -73 -74 -75 0
4 -51 -55 -71 -72 73 74 75 0
4 -51 -55 -71 -72 73 -74 -75 0
4 -51 -55 -71 -72 -73 74 -75 0
4 -51 -55 -71 -72 -73 -74 75 0
-4 51 55 71 72 73 74 -75 0
-4 51 55 71 72 73 -74 75 0
-4 51 55 71 72 -73 74 75 0
-4 51 55 71 72 -73 -74 -75 0
-4 51 55 71 -72 73 74 75 0
-4 51 55 71 -72 73 -74 -75 0
-4 51 55 71 -72 -73 74 -75 0
-4 51 55 71 -72 -73 -74 75 0
-4 51 55 -71 72 73 74 75 0
-4 51 55 -71 72 73 -74 -75 0
-4 51 55 -71 72 -73 74 -75 0
-4 51 55 -71 72 -73 -74 75 0
-4 51 55 -71 -72 73 74 -75 0
-4 51 55 -71 -72 73 -74 75 0
-4 51 55 -71 -72 -73 74 75 0
-4 51 55 -71 -72 -73 -74 -75 0
-4 51 -55 71 72 73 74 75 0
-4 51 -55 71 72 73 -74 -75 0
-4 51 -55 71 72 -73 74 -75 0
-4 51 -55 71 72 -73 -74 75 0
-4 51 -55 71 -72 73 74 -75 0
-4 51 -55 71 -72 73 -74 75 0
-4 51 -55 71 -72 -73 74 75 0
-4 51 -55 71 -72 -73 -74 -75 0
-4 51 -55 -71 72 73 74 -75 0
-4 51 -55 -71 72 73 -74 75 0
-4 51 -55 -71 72 -73 74 75 0
-4 51 -55 -71 72 -73 -74 -75 0
-4 51 -55 -71 -72 73 74 75 0
-4 51 -55 -71 -72 73 -74 -75 0
-4 51 -55 -71 -72 -73 74 -75 0
-4 51 -55 -71 -72 -73 -74 75 0
-4 -51 55 71 72 73 74 75 0
-4 -51 55 71 72 73 -74 -75 0
-4 -51 55 71 72 -73 74 -75 0
-4 -51 55 71 72 -73 -74 75 0
-4 -51 55 71 -72 73 74 -75 0
-4 -51 55 71 -72 73 -74 75 0
-4 -51 55 71 -72 -73 74 75 0
-4 -51 55 71 -72 -73 -74 -75 0
-4 -51 55 -71 72 73 74 -75 0
-4 -51 55 -71 72 73 -74 75 0
-4 -51 55 -71 72 -73 74 75 0
-4 -51 55 -71 72 -73 -74 -75 0
-4 -51 55 -71 -72 73 74 75 0
-4 -51 55 -71 -72 73 -74 -75 0
-4 -51 55 -71 -72 -73 74 -75 0
-4 -51 55 -71 -72 -73 -74 75 0
-4 -51 -55 71 72 73 74 -75 0
-4 -51 -55 71 72 73 -74 75 0
-4 -51 -55 71 72 -73 74 75 0
-4 -51 -55 71 72 -73 -74 -75 0
-4 -51 -55 71 -72 73 74 75 0
-4 -51 -55 71 -72 73 -74 -75 0
-4 -51 -55 71 -72 -73 74 -75 0
-4 -51 -55 71 -72 -73 -74 75 0
-4 -51 -55 -71 72 73 74 75 0
-4 -51 -55 -71 72 73 -74 -75 0
-4 -51 -55 -71 72 -73 74 -75 0
-4 -51 -55 -71 72 -73 -74 75 0
-4 -51 -55 -71 -72 73 74 -75 0
-4 -51 -55 -71 -72 73 -74 75 0
-4 -51 -55 -71 -72 -73 74 75 0
-4 -51 -55 -71 -72 -73 -74 -75 0
38 -76 0
-38 76 0
33 77 0
-33 -77 0
67 78 79 0
67 -78 -79 0
-67 78 -79 0
-67 -78 79 0
23 80 0
-23 -80 0
81 82 -83 0
81 -82 83 0
-81 82 83 0
-81 -82 -83 0
84 85 -86 0
84 -85 86 0
-84 85 86 0
-84 -85 -86 0
45 87 0
-45 -87 0
-88 0
20 48 -89 0
20 -48 89 0
-20 48 89 0
-20 -48 -89 0
68 90 0
-68 -90 0
87 91 92 93 0
87 91 -92 -93 0
87 -91 92 -93 0
87 -91 -92 93 0
-87 91 92 -93 0
-87 91 -92 93 0
-87 -91 92 93 0
-87 -91 -92 -93 0
13 40 94 95 0
13 40 -94 -95 0
13 -40 94 -95 0
13 -40 -94 95 0
-13 40 94 -95 0
-13 40 -94 95 0
-13 -40 94 95 0
-13 -40 -94 -95 0
14 96 97 98 -99 0
14 96 97 -98 99 0
14 96 -97 98 99 0
14 96 -97 -98 -99 0
14 -96 97 98 99 0
14 -96 97 -98 -99 0
14 -96 -97 98 -99 0
14 -96 -97 -98 99 0
-14 96 97 98 99 0
-14 96 97 -98 -99 0
-14 96 -97 98 -99 0
-14 96 -97 -98 99 0
-14 -96 97 98 -99 0
-14 -96 97 -98 99 0
-14 -96 -97 98 99 0
-14 -96 -97 -98 -99 0
39 41 91 0
39 -41 -91 0
-39 41 -91 0
-39 -41 91 0
76 100 101 102 0
76 100 -101 -102 0
76 -100 101 -102 0
76 -100 -101 102 0
-76 100 101 -102 0
-76 100 -101 102 0
-76 -100 101 102 0
-76 -100 -101 -102 0
103 -104 0
-103 104 0
-105 0
71 106 107 108 0
71 106 -107 -108 0
71 -106 107 -108 0
71 -106 -107 108 0
-71 106 107 -108 0
-71 106 -107 108 0
-71 -106 107 108 0
-71 -106 -107 -108 0
-109 0
24 110 -111 0
24 -110 111 0
-24 110 111 0
-24 -110 -111 0
52 -112 0
-52 112 0
96 113 -114 0
96 -113 114 0
-96 113 114 0
-96 -113 -114 0
49 65 115 -116 0
49 65 -115 116 0
49 -65 115 116 0
49 -65 -115 -116 0
-49 65 115 116 0
-49 65 -115 -116 0
-49 -65 115 -116 0
-49 -65 -115 116 0
72 106 117 0
72 -106 -117 0
-72 106 -117 0
-72 -106 117 0
107 118 -119 0
107 -118 119 0
-107 118 119 0
-107 -118 -119 0
46 69 100 120 0
46 69 -100 -120 0
46 -69 100 -120 0
46 -69 -100 120 0
-46 69 100 -120 0
-46 69 -100 120 0
-46 -69 100 120 0
-46 -69 -100 -120 0
-84 0
15 63 -121 0
15 -63 121 0
-15 63 121 0
-15 -63 -121 0
122 -123 0
-122 123 0
5 124 125 0
5 -124 -125 0
-5 124 -125 0
-5 -124 125 0
16 118 126 -127 0
16 118 -126 127 0
16 -118 126 127 0
16 -118 -126 -127 0
-16 118 126 127 0
-16 118 -126 -127 0
-16 -118 126 -127 0
-16 -118 -126 127 0
7 -30 0
-7 30 0
66 -128 0
-66 128 0
22 119 0
-22 -119 0
80 94 129 130 131 0
80 94 129 -130 -131 0
80 94 -129 130 -131 0
80 94 -129 -130 131 0
80 -94 129 130 -131 0
80 -94 129 -130 131 0
80 -94 -129 130 131 0
80 -94 -129 -130 -131 0
-80 94 129 130 -131 0
-80 94 129 -130 131 0
-80 94 -129 130 131 0
-80 94 -129 -130 -131 0
-80 -94 129 130 131 0
-80 -94 129 -130 -131 0
-80 -94 -129 130 -131 0
-80 -94 -129 -130 131 0
81 -103 0
-81 103 0
47 126 132 133 0
47 126 -132 -133 0
47 -126 132 -133 0
47 -126 -132 133 0
-47 126 132 -133 0
-47 126 -132 133 0
-47 -126 132 133 0
-47 -126 -132 -133 0
132 134 0
-132 -134 0
34 82 -110 0
34 -82 110 0
-34 82 110 0
-34 -82 -110 0
56 135 0
-56 -135 0
53 70 77 -83 0
53 70 -77 83 0
53 -70 77 83 0
53 -70 -77 -83 0
-53 70 77 83 0
-53 70 -77 -83 0
-53 -70 77 -83 0
-53 -70 -77 83 0
-42 0
97 -136 0
-97 136 0
61 78 0
-61 -78 0
9 36 79 -98 0
9 36 -79 98 0
9 -36 79 98 0
9 -36 -79 -98 0
-9 36 79 98 0
-9 36 -79 -98 0
-9 -36 79 -98 0
-9 -36 -79 98 0
17 137 0
-17 -137 0
85 -138 0
-85 138 0
109 113 120 0
109 -113 -120 0
-109 113 -120 0
-109 -113 120 0
99 -139 0
-99 139 0
140 141 0
-140 -141 0
101 124 138 0
101 -124 -138 0
-101 124 -138 0
-101 -124 138 0
25 62 108 137 -142 0
25 62 108 -137 142 0
25 62 -108 137 142 0
25 62 -108 -137 -142 0
25 -62 108 137 142 0
25 -62 108 -137 -142 0
25 -62 -108 137 -142 0
25 -62 -108 -137 142 0
-25 62 108 137 142 0
-25 62 108 -137 -142 0
-25 62 -108 137 -142 0
-25 62 -108 -137 142 0
-25 -62 108 137 -142 0
-25 -62 108 -137 142 0
-25 -62 -108 137 142 0
-25 -62 -108 -137 -142 0
44 88 -89 0
44 -88 89 0
-44 88 89 0
-44 -88 -89 0
-139 0
115 143 0
-115 -143 0
26 57 129 0
26 -57 -129 0
-26 57 -129 0
-26 -57 129 0
43 130 144 145 0
43 130 -144 -145 0
43 -130 144 -145 0
43 -130 -144 145 0
-43 130 144 -145 0
-43 130 -144 145 0
-43 -130 144 145 0
-43 -130 -144 -145 0
0
73 0
18 135 0
-18 -135 0
12 31 -146 0
12 -31 146 0
-12 31 146 0
-12 -31 -146 0
147 0
-59 0
74 92 142 146 0
74 92 -142 -146 0
74 -92 142 -146 0
74 -92 -142 146 0
-74 92 142 -146 0
-74 92 -142 146 0
-74 -92 142 146 0
-74 -92 -142 -146 0
104 143 0
-104 -143 0
-127 0
122 140 0
-122 -140 0
10 75 116 125 0
10 75 -116 -125 0
10 -75 116 -125 0
10 -75 -116 125 0
-10 75 116 -125 0
-10 75 -116 125 0
-10 -75 116 125 0
-10 -75 -116 -125 0
64 141 148 0
64 -141 -148 0
-64 141 -148 0
-64 -141 148 0
6 32 90 114 0
6 32 -90 -114 0
6 -32 90 -114 0
6 -32 -90 114 0
-6 32 90 -114 0
-6 32 -90 114 0
-6 -32 90 114 0
-6 -32 -90 -114 0
11 54 111 112 -136 0
11 54 111 -112 136 0
11 54 -111 112 136 0
11 54 -111 -112 -136 0
11 -54 111 112 136 0
11 -54 111 -112 -136 0
11 -54 -111 112 -136 0
11 -54 -111 -112 136 0
-11 54 111 112 136 0
-11 54 111 -112 -136 0
-11 54 -111 112 -136 0
-11 54 -111 -112 136 0
-11 -54 111 112 -136 0
-11 -54 111 -112 136 0
-11 -54 -111 112 136 0
-11 -54 -111 -112 -136 0
86 -134 0
-86 134 0
8 117 149 -150 0
8 117 -149 150 0
8 -117 149 150 0
8 -117 -149 -150 0
-8 117 149 150 0
-8 117 -149 -150 0
-8 -117 149 -150 0
-8 -117 -149 150 0
0
123 -149 0
-123 149 0
128 0
144 -148 0
-144 148 0
-147 0
105 133 -145 0
105 -133 145 0
-105 133 145 0
-105 -133 -145 0
19 93 95 102 121 131 150 0
19 93 95 102 121 -131 -150 0
19 93 95 102 -121 131 -150 0
19 93 95 102 -121 -131 150 0
19 93 95 -102 121 131 -150 0
19 93 95 -102 121 -131 150 0
19 93 95 -102 -121 131 150 0
19 93 95 -102 -121 -131 -150 0
19 93 -95 102 121 131 -150 0
19 93 -95 102 121 -131 150 0
19 93 -95 102 -121 131 150 0
19 93 -95 102 -121 -131 -150 0
19 93 -95 -102 121 131 150 0
19 93 -95 -102 121 -131 -150 0
19 93 -95 -102 -121 131 -150 0
19 93 -95 -102 -121 -131 150 0
19 -93 95 102 121 131 -150 0
19 -93 95 102 121 -131 150 0
19 -93 95 102 -121 131 150 0
19 -93 95 102 -121 -131 -150 0
19 -93 95 -102 121 131 150 0
19 -93 95 -102 121 -131 -150 0
19 -93 95 -102 -121 131 -150 0
19 -93 95 -102 -121 -131 150 0
19 -93 -95 102 121 131 150 0
19 -93 -95 102 121 -131 -150 0
19 -93 -95 102 -121 131 -150 0
19 -93 -95 102 -121 -131 150 0
19 -93 -95 -102 121 131 -150 0
19 -93 -95 -102 121 -131 150 0
19 -93 -95 -102 -121 131 150 0
19 -93 -95 -102 -121 -131 -150 0
-19 93 95 102 121 131 -150 0
-19 93 95 102 121 -131 150 0
-19 93 95 102 -121 131 150 0
-19 93 95 102 -121 -131 -150 0
-19 93 95 -102 121 131 150 0
-19 93 95 -102 121 -131 -150 0
-19 93 95 -102 -121 131 -150 0
-19 93 95 -102 -121 -131 150 0
-19 93 -95 102 121 131 150 0
-19 93 -95 102 121 -131 -150 0
-19 93 -95 102 -121 131 -150 0
-19 93 -95 102 -121 -131 150 0
-19 93 -95 -102 121 131 -150 0
-19 93 -95 -102 121 -131 150 0
-19 93 -95 -102 -121 131 150 0
-19 93 -95 -102 -121 -131 -150 0
-19 -93 95 102 121 131 150 0
-19 -93 95 102 121 -131 -150 0
-19 -93 95 102 -121 131 -150 0
-19 -93 95 102 -121 -131 150 0
-19 -93 95 -102 121 131 -150 0
-19 -93 95 -102 121 -131 150 0
-19 -93 95 -102 -121 131 150 0
-19 -93 95 -102 -121 -131 -150 0
-19 -93 -95 102 121 131 -150 0
-19 -93 -95 102 121 -131 150 0
-19 -93 -95 102 -121 131 150 0
-19 -93 -95 102 -121 -131 -150 0
-19 -93 -95 -102 121 131 150 0
-19 -93 -95 -102 121 -131 -150 0
-19 -93 -95 -102 -121 131 -150 0
-19 -93 -95 -102 -121 -131 150 0
